1, 15, 4, 6, 5, 9, 12, 11, 10, 13, 8, 18, 14, 1
1, 33, 35, 39, 42, 43, 51, 50, 48, 49, 41, 40, 38, 19, 1
1, 17, 31, 24, 37, 47, 46, 45, 44, 25, 23, 26, 1
1, 52, 53, 22, 30, 21, 27, 28, 29, 32, 34, 36, 20, 7, 3, 2, 16, 1
